10J3M/DAT/10J3MUNX-11.dat
10 3
30.548 5.527
5.1545 2.2704
28.51 5.3395
3.0745 1.7534
49.6325 7.045
6.5193 2.5533
8.6935 2.9485
0.6686 0.8177
48.4135 6.958
49.7316 7.0521
42.2649