10J3M/SOL/10J3MUNX-11.sol
solution status: optimal solution found
objective value:                     68.6666333333333
x#1#3                                               1 	(obj:0)
x#2#3                                               1 	(obj:0)
x#3#1                                               1 	(obj:0)
x#4#1                               0.405030014358818 	(obj:0)
x#4#2                               0.594969985641181 	(obj:0)
x#5#1                                               1 	(obj:0)
x#6#1                                               1 	(obj:0)
x#7#2                               0.783903851936812 	(obj:0)
x#7#3                               0.216096148063188 	(obj:0)
x#8#3                                               1 	(obj:0)
x#9#3                                               1 	(obj:0)
x#10#2                                              1 	(obj:0)
z                                    68.6666333333333 	(obj:1)
